DIMENSION: 52
NODE_COORD_SECTION
1 565.0000000000 575.0000000000
2 25.0000000000 185.0000000000
3 345.0000000000 750.0000000000
4 945.0000000000 685.0000000000
5 845.0000000000 655.0000000000
6 880.0000000000 660.0000000000
7 25.0000000000 230.0000000000
8 525.0000000000 1000.0000000000
9 580.0000000000 1175.0000000000
10 650.0000000000 1130.0000000000
11 1605.0000000000 620.0000000000
12 1220.0000000000 580.0000000000
13 1465.0000000000 200.0000000000
14 1530.0000000000 5.0000000000
15 845.0000000000 680.0000000000
16 725.0000000000 370.0000000000
17 145.0000000000 665.0000000000
18 415.0000000000 635.0000000000
19 510.0000000000 875.0000000000
20 560.0000000000 365.0000000000
21 300.0000000000 465.0000000000
22 520.0000000000 585.0000000000
23 480.0000000000 415.0000000000
24 835.0000000000 625.0000000000
25 975.0000000000 580.0000000000
26 1215.0000000000 245.0000000000
27 1320.0000000000 315.0000000000
28 1250.0000000000 400.0000000000
29 660.0000000000 180.0000000000
30 410.0000000000 250.0000000000
31 420.0000000000 555.0000000000
32 575.0000000000 665.0000000000
33 1150.0000000000 1160.0000000000
34 700.0000000000 580.0000000000
35 685.0000000000 595.0000000000
36 685.0000000000 610.0000000000
37 770.0000000000 610.0000000000
38 795.0000000000 645.0000000000
39 720.0000000000 635.0000000000
40 760.0000000000 650.0000000000
41 475.0000000000 960.0000000000
42 95.0000000000 260.0000000000
43 875.0000000000 920.0000000000
44 700.0000000000 500.0000000000
45 555.0000000000 815.0000000000
46 830.0000000000 485.0000000000
47 1170.0000000000 65.0000000000
48 830.0000000000 610.0000000000
49 605.0000000000 625.0000000000
50 595.0000000000 360.0000000000
51 1340.0000000000 725.0000000000
52 1740.0000000000 245.0000000000
